(set-logic QF_S)
(set-option :strings-exp true)
(set-option :produce-models true)
(declare-fun sigmaStar_0 () String)
(declare-fun literal_1 () String)
(assert (= literal_1 "\x72\x65\x73\x65\x74\x74\x6f\x64\x65\x66\x61\x75\x6c\x74\x73"))
(assert (str.in.re literal_1 (re.++ (re.* re.allchar) (re.++ (str.to.re "\x5c\x3c\x53\x43\x52\x49\x50\x54") (re.* re.allchar)))))
(check-sat)
(get-model)
